letting n =  10
letting blocks =  [[1, 2], [1, 3], [1, 7], [2, 1], [2, 5], [2, 10], [3, 2], [3, 5], [3, 7], [4, 2], [4, 4], [4, 5], [4, 7], [4, 8], [5, 5], [5, 6], [5, 10], [6, 1], [7, 4], [8, 8], [9, 9], [10, 9]]
